(set-logic ALL)
(declare-fun var0 () String)
(assert (str.in_re var0 (re.++ (re.union (re.union (str.to_re "00") (str.to_re "11")) (re.union (str.to_re "222") (str.to_re "3"))) (re.++ (re.+ (re.+ (str.to_re "4"))) (re.++ (re.+ (re.union (str.to_re "5") (str.to_re "66"))) (re.++ (re.* (re.+ (str.to_re "7"))) (re.++ (re.union (re.+ (str.to_re "888")) (re.+ (str.to_re "99"))) (re.++ (re.* (re.* (str.to_re "a"))) (re.++ (re.+ (re.+ (str.to_re "bb"))) (re.++ (re.+ (re.+ (str.to_re "cc"))) (re.++ (re.+ (re.union (str.to_re "dd") (str.to_re "eee"))) (re.++ (re.union (re.union (str.to_re "ff") (str.to_re "ggg")) (re.union (str.to_re "hhh") (str.to_re "iii"))) (re.++ (re.* (re.union (str.to_re "jjj") (str.to_re "k"))) (re.++ (re.* (re.+ (str.to_re "lll"))) (re.++ (re.union (re.+ (str.to_re "mmm")) (re.+ (str.to_re "n"))) (re.++ (re.union (re.* (str.to_re "o")) (re.* (str.to_re "ppp"))) (re.++ (re.+ (re.+ (str.to_re "q"))) (re.++ (re.union (re.union (str.to_re "rr") (str.to_re "s")) (re.union (str.to_re "tt") (str.to_re "u"))) (re.++ (re.union (re.+ (str.to_re "vvv")) (re.+ (str.to_re "www"))) (re.++ (re.union (re.* (str.to_re "x")) (re.* (str.to_re "y"))) (re.++ (re.* (re.* (str.to_re "zzz"))) (re.++ (re.union (re.union (str.to_re "A") (str.to_re "BB")) (re.union (str.to_re "C") (str.to_re "DD"))) (re.++ (re.* (re.* (str.to_re "EEE"))) (re.++ (re.+ (re.+ (str.to_re "F"))) (re.++ (re.* (re.union (str.to_re "G") (str.to_re "HH"))) (re.++ (re.union (re.+ (str.to_re "I")) (re.+ (str.to_re "JJJ"))) (re.++ (re.* (re.* (str.to_re "K"))) (re.++ (re.* (re.* (str.to_re "L"))) (re.++ (re.+ (re.union (str.to_re "MMM") (str.to_re "NNN"))) (re.++ (re.+ (re.* (str.to_re "OO"))) (re.++ (re.* (re.+ (str.to_re "PPP"))) (re.++ (re.union (re.* (str.to_re "Q")) (re.* (str.to_re "RRR"))) (re.++ (re.union (re.* (str.to_re "S")) (re.* (str.to_re "TTT"))) (re.++ (re.+ (re.* (str.to_re "UUU"))) (re.++ (re.* (re.* (str.to_re "VVV"))) (re.++ (re.union (re.+ (str.to_re "W")) (re.+ (str.to_re "X"))) (re.++ (re.* (re.* (str.to_re "Y"))) (re.++ (re.union (re.union (str.to_re "Z") (str.to_re "!")) (re.union (str.to_re """") (str.to_re "#"))) (re.union (re.+ (str.to_re "$")) (re.+ (str.to_re "%%")))))))))))))))))))))))))))))))))))))))))
(check-sat)